c Output_time 26.03.2020 18:15:42_+0100 1585242942731680815
c ** Program information **
c program_name                          "QBRG_debug"
c version                               "0.3.20"
c date                                  "25.3.2020"
c gid_id                                "673970833836058123f633335630c185360d632e"
c author                                "Oliver Kullmann"
c url                                   "https://github.com/OKullmann/oklibrary/blob/master/Satisfiability/Transformers/Generators/Random/QBRG.cpp"
c ** Machine information **
c machine_name                          "chyna-Lenovo-G50-70"
c bogomips                              3791.08
c ** Compilation information **
c compiler_version                      "g++ 7.5.0"
c compilation_date                      "Mar_26_2020 11:16:30"
c compilation_options                   "--std=c++17 -pedantic -fmax-errors=5 -Wall -Wextra -g -D_GLIBCXX_DEBUG"
c NDEBUG                                0
c OPTIMIZE                              0
c ** Parameters **
c command-line                          "./QBRG_debug" "a40 e40 a40 40" "736*1,1|2-2,1|3-3,1|4-4,1" "" "1,t" ""
c output                                "QuBlRaGe_160_736_1585242942731523494.qdimacs"
c options                               "filtered,renamed"
c num_quantifier_blocks                 4
c  quantifier_blocks                    1:a1-40 2:e41-80 3:a81-120 4:e121-160
c num_clause-blocks                     1
c  clause-blocks                        736 * {1-40,1,1/2} | {41-80,1,1/2} | {81-120,1,1/2} | {121-160,1,1/2}
c num_e-seeds                           37+2=39
c  e-seeds                              1 0 1 0 5 160 2 40 0 40 1 40 0 40 1 736 4 1 1 1 1 2 2 2 1 1 2 3 3 1 1 2 4 4 1 1 2 1 1585242942731522386
p cnf 160 736
a 1 2 3 4 5 6 7 8 9 10 11 12 13 14 15 16 17 18 19 20 21 22 23 24 25 26 27 28 29 30 31 32 33 34 35 36 37 38 39 40 0
e 41 42 43 44 45 46 47 48 49 50 51 52 53 54 55 56 57 58 59 60 61 62 63 64 65 66 67 68 69 70 71 72 73 74 75 76 77 78 79 80 0
a 81 82 83 84 85 86 87 88 89 90 91 92 93 94 95 96 97 98 99 100 101 102 103 104 105 106 107 108 109 110 111 112 113 114 115 116 117 118 119 120 0
e 121 122 123 124 125 126 127 128 129 130 131 132 133 134 135 136 137 138 139 140 141 142 143 144 145 146 147 148 149 150 151 152 153 154 155 156 157 158 159 160 0
26 -64 -95 -121 0
-8 -46 98 -121 0
8 -63 -99 -121 0
-6 -77 101 -121 0
18 -52 102 -121 0
-32 44 -103 -121 0
31 -63 -105 -121 0
-18 69 106 -121 0
26 -77 87 121 0
30 -42 88 121 0
-15 61 -95 121 0
-2 -44 100 121 0
-16 51 102 121 0
33 -47 107 121 0
40 -77 -111 121 0
-28 -44 117 121 0
-18 -74 83 -122 0
32 50 87 -122 0
-38 49 -94 -122 0
-18 62 -101 -122 0
-29 -44 103 -122 0
-16 -79 -105 -122 0
26 60 106 -122 0
-8 41 109 -122 0
31 -73 -111 -122 0
12 -68 118 -122 0
-8 -42 -120 -122 0
32 75 84 122 0
-36 61 88 122 0
-35 52 92 122 0
27 -44 -98 122 0
-27 43 105 122 0
29 -59 -107 122 0
-14 -71 -110 122 0
-30 62 -119 122 0
-20 -43 -82 -123 0
-27 -60 85 -123 0
9 -50 -86 -123 0
-39 70 86 -123 0
-11 77 -104 -123 0
-11 48 109 -123 0
29 -52 -110 -123 0
-2 -65 118 -123 0
1 -44 -82 123 0
-1 77 -83 123 0
14 -64 83 123 0
40 50 85 123 0
-39 64 85 123 0
14 -61 92 123 0
37 -75 -93 123 0
17 -60 93 123 0
20 -55 -114 123 0
-9 61 -120 123 0
-24 52 83 -124 0
30 41 99 -124 0
-27 -73 100 -124 0
-4 67 -106 -124 0
8 -65 114 -124 0
-32 -56 -117 -124 0
-39 80 117 -124 0
15 46 -118 -124 0
-23 -57 119 -124 0
-6 76 81 124 0
38 50 87 124 0
-19 64 95 124 0
27 70 -96 124 0
36 -61 98 124 0
-31 -61 100 124 0
-2 56 -101 124 0
-12 -57 107 124 0
-12 -74 115 124 0
16 -56 -117 124 0
-15 78 118 124 0
36 -58 -82 -125 0
36 -72 84 -125 0
5 58 -87 -125 0
-39 48 87 -125 0
-27 -47 94 -125 0
33 78 102 -125 0
-27 57 114 -125 0
6 -68 120 -125 0
36 69 -82 125 0
39 -43 -89 125 0
-32 -52 89 125 0
-13 76 96 125 0
5 57 102 125 0
-21 77 -103 125 0
34 62 103 125 0
11 -66 112 125 0
-35 -54 115 125 0
19 -71 88 -126 0
-14 57 92 -126 0
-40 66 -97 -126 0
29 72 101 -126 0
7 45 -108 -126 0
24 46 110 -126 0
-19 -41 115 -126 0
-26 -73 116 -126 0
-1 47 83 126 0
-23 79 -88 126 0
37 -46 -93 126 0
20 79 96 126 0
35 -65 -102 126 0
38 -74 -106 126 0
-30 -62 106 126 0
14 -79 83 -127 0
20 -79 88 -127 0
-8 -50 -94 -127 0
-12 61 98 -127 0
-15 67 100 -127 0
-4 -79 -101 -127 0
28 45 105 -127 0
-36 -78 -111 -127 0
11 -60 118 -127 0
-1 -52 120 -127 0
1 49 84 127 0
-31 -53 -87 127 0
26 -57 89 127 0
23 75 -91 127 0
35 70 -105 127 0
-11 44 -106 127 0
19 -62 109 127 0
28 -44 -117 127 0
2 -57 118 127 0
33 -63 81 -128 0
-37 -77 -82 -128 0
38 -44 -85 -128 0
-9 -49 87 -128 0
12 64 -88 -128 0
16 44 -90 -128 0
37 41 -110 -128 0
9 56 -118 -128 0
-14 -42 119 -128 0
-15 50 83 128 0
14 74 84 128 0
-34 48 86 128 0
-38 -51 -90 128 0
33 49 -95 128 0
-10 -57 95 128 0
33 -77 95 128 0
7 -59 97 128 0
-13 77 -99 128 0
16 61 104 128 0
37 -71 -110 128 0
-27 46 111 128 0
-11 -62 116 128 0
4 68 81 -129 0
37 52 -83 -129 0
12 -60 84 -129 0
24 68 -85 -129 0
19 -43 -90 -129 0
32 76 92 -129 0
40 45 -97 -129 0
-17 76 -97 -129 0
-24 72 -102 -129 0
-24 59 103 -129 0
-21 -50 118 -129 0
-22 -52 82 129 0
-25 48 -84 129 0
22 -49 86 129 0
15 77 86 129 0
-28 -42 -88 129 0
-30 -64 -96 129 0
-21 49 100 129 0
6 71 105 129 0
36 -63 -108 129 0
-5 75 112 129 0
28 -58 -83 -130 0
-22 -56 -84 -130 0
-28 -48 85 -130 0
4 -53 -94 -130 0
-14 -74 -94 -130 0
2 -73 106 -130 0
30 80 86 130 0
-29 -78 97 130 0
-28 -57 103 130 0
-4 -65 -104 130 0
-25 -68 106 130 0
-9 44 -115 130 0
-12 59 116 130 0
28 75 -81 -131 0
3 68 81 -131 0
-26 63 -85 -131 0
-39 46 87 -131 0
4 70 88 -131 0
-15 51 -92 -131 0
23 -70 98 -131 0
-29 -79 105 -131 0
-28 -53 -106 -131 0
26 50 110 -131 0
-21 63 -87 131 0
5 57 87 131 0
-20 -44 -89 131 0
-28 -64 -92 131 0
3 -45 -94 131 0
-17 -79 94 131 0
19 -66 99 131 0
-12 -61 100 131 0
33 -44 -102 131 0
-25 -78 -104 131 0
-26 -78 106 131 0
-30 47 -108 131 0
-29 -70 108 131 0
15 62 110 131 0
-2 -73 111 131 0
19 72 112 131 0
12 -55 -116 131 0
14 -54 117 131 0
13 -56 117 131 0
22 51 -85 -132 0
-34 -45 -86 -132 0
13 50 87 -132 0
24 72 -88 -132 0
9 67 91 -132 0
-22 -77 92 -132 0
31 -69 95 -132 0
3 -44 105 -132 0
-4 -53 105 -132 0
22 -67 109 -132 0
-25 50 112 -132 0
3 -64 -91 132 0
25 75 93 132 0
32 -61 -94 132 0
12 -45 -95 132 0
35 67 96 132 0
-9 -45 -116 132 0
31 71 -117 132 0
19 42 -118 132 0
23 -61 -81 -133 0
-35 61 84 -133 0
-34 76 -90 -133 0
16 60 -94 -133 0
-21 -59 -99 -133 0
20 -71 99 -133 0
-18 -58 -103 -133 0
-1 -64 -109 -133 0
-20 -66 116 -133 0
-31 42 118 -133 0
-9 65 -120 -133 0
-25 69 83 133 0
-28 47 91 133 0
39 62 93 133 0
31 -73 -94 133 0
4 -63 -96 133 0
34 -68 -103 133 0
-29 -69 109 133 0
-20 56 -110 133 0
2 54 119 133 0
3 76 -81 -134 0
29 -77 88 -134 0
-14 -58 90 -134 0
-31 -74 -92 -134 0
38 62 94 -134 0
40 65 95 -134 0
-30 -72 97 -134 0
24 47 98 -134 0
7 -59 -102 -134 0
36 42 -104 -134 0
-39 -41 107 -134 0
3 56 -109 -134 0
-39 -48 116 -134 0
24 68 -118 -134 0
-20 67 118 -134 0
7 -41 83 134 0
-24 59 -89 134 0
5 77 92 134 0
-39 78 92 134 0
-8 -57 93 134 0
-1 -53 -100 134 0
36 41 -101 134 0
30 69 -106 134 0
-16 -63 -107 134 0
1 71 -110 134 0
-37 41 -112 134 0
-15 46 -114 134 0
-36 45 120 134 0
-17 57 -85 -135 0
-9 56 -89 -135 0
40 -69 90 -135 0
17 -74 91 -135 0
18 -58 95 -135 0
-1 -68 -96 -135 0
25 -56 -98 -135 0
-37 -77 -98 -135 0
14 -55 98 -135 0
32 -71 99 -135 0
18 43 -105 -135 0
-25 57 -108 -135 0
13 -62 -109 -135 0
36 -80 -111 -135 0
-17 49 111 -135 0
-27 67 115 -135 0
14 -76 119 -135 0
-30 47 87 135 0
6 79 89 135 0
11 52 94 135 0
21 -72 -97 135 0
31 -62 97 135 0
-25 -47 98 135 0
26 72 -104 135 0
-5 -57 110 135 0
34 77 -111 135 0
-14 -79 113 135 0
-1 55 114 135 0
9 57 -115 135 0
40 80 -84 -136 0
5 46 84 -136 0
19 53 86 -136 0
7 -45 87 -136 0
-34 -55 87 -136 0
-39 -42 -89 -136 0
-35 -48 -91 -136 0
1 -51 -92 -136 0
-30 42 -93 -136 0
8 79 93 -136 0
-34 -75 -94 -136 0
-9 -64 -97 -136 0
32 55 -98 -136 0
17 -47 -105 -136 0
-16 -55 -105 -136 0
22 -41 105 -136 0
-36 -59 -108 -136 0
-39 71 109 -136 0
11 53 -111 -136 0
5 -74 111 -136 0
5 46 -113 -136 0
32 75 116 -136 0
6 74 117 -136 0
-4 65 119 -136 0
12 70 85 136 0
21 -79 -88 136 0
-7 -74 90 136 0
25 46 94 136 0
-17 73 -105 136 0
-1 80 -107 136 0
35 -55 -109 136 0
16 61 -111 136 0
20 52 114 136 0
-4 75 -115 136 0
-24 41 118 136 0
5 61 -83 -137 0
30 70 -84 -137 0
-29 61 86 -137 0
22 79 100 -137 0
8 73 102 -137 0
-31 72 -104 -137 0
10 46 106 -137 0
3 -53 83 137 0
-33 -67 -91 137 0
-29 -71 -92 137 0
39 -61 92 137 0
-9 69 -93 137 0
37 -59 98 137 0
19 -74 101 137 0
9 80 -106 137 0
-6 67 -120 137 0
22 -52 -86 -138 0
-9 -48 95 -138 0
27 -77 96 -138 0
-32 71 102 -138 0
-39 51 -110 -138 0
23 65 -83 138 0
3 57 93 138 0
18 68 96 138 0
-25 44 -101 138 0
32 59 101 138 0
-2 -54 -109 138 0
20 -69 116 138 0
10 70 88 -139 0
33 -77 -105 -139 0
17 -76 110 -139 0
14 75 -117 -139 0
25 45 -84 139 0
-19 -71 87 139 0
30 74 -93 139 0
-19 73 -97 139 0
27 49 -100 139 0
-16 64 103 139 0
-5 -58 104 139 0
-39 49 -81 -140 0
28 51 -82 -140 0
29 -57 -90 -140 0
27 47 92 -140 0
-11 -55 -98 -140 0
-1 67 -102 -140 0
24 -56 -108 -140 0
-32 -50 -112 -140 0
26 56 117 -140 0
-1 -65 -118 -140 0
28 -48 -120 -140 0
29 73 83 140 0
-37 -64 90 140 0
25 52 92 140 0
33 42 97 140 0
39 56 -103 140 0
-34 -50 -111 140 0
16 -70 -113 140 0
-5 58 -117 140 0
-33 61 95 -141 0
-31 -61 -98 -141 0
38 -66 -108 -141 0
-26 77 108 -141 0
-8 50 -111 -141 0
-6 -56 -114 -141 0
1 50 115 -141 0
22 63 120 -141 0
21 43 88 141 0
15 78 90 141 0
-15 63 -93 141 0
5 71 -96 141 0
-19 -79 101 141 0
-14 66 103 141 0
-32 41 -105 141 0
-28 57 -107 141 0
-33 79 -107 141 0
-39 56 -108 141 0
27 -69 109 141 0
-21 78 114 141 0
-26 -62 -120 141 0
-24 -63 84 -142 0
-2 47 -89 -142 0
-32 -59 -91 -142 0
17 71 98 -142 0
1 -72 104 -142 0
20 -60 110 -142 0
-31 71 114 -142 0
4 55 87 142 0
-1 -71 87 142 0
-30 -69 97 142 0
-33 44 -98 142 0
7 46 99 142 0
21 -71 -111 142 0
-19 77 -119 142 0
7 54 119 142 0
-36 -64 81 -143 0
-17 -65 -82 -143 0
22 44 100 -143 0
-38 54 -103 -143 0
15 -78 -106 -143 0
-9 -45 110 -143 0
27 60 86 143 0
-18 70 -91 143 0
-17 62 91 143 0
7 -46 -94 143 0
31 56 96 143 0
20 49 -99 143 0
18 -66 104 143 0
-28 -67 -105 143 0
-17 -61 -116 143 0
16 -69 -85 -144 0
-14 -44 -96 -144 0
3 -50 102 -144 0
26 -78 103 -144 0
-12 -79 105 -144 0
40 -41 -106 -144 0
-39 50 107 -144 0
25 -76 107 -144 0
-39 57 111 -144 0
9 -56 -119 -144 0
12 59 -82 144 0
-14 65 86 144 0
-15 -57 88 144 0
27 -69 90 144 0
-1 -78 91 144 0
20 45 92 144 0
-11 79 93 144 0
39 -65 -95 144 0
-29 -59 96 144 0
40 -47 -97 144 0
20 58 97 144 0
36 59 108 144 0
28 -64 -110 144 0
35 60 115 144 0
-3 -54 116 144 0
-3 48 87 -145 0
28 46 -92 -145 0
-28 65 -96 -145 0
18 43 -103 -145 0
-4 69 106 -145 0
6 54 108 -145 0
-36 -66 -114 -145 0
-29 60 -119 -145 0
-21 45 83 145 0
-3 75 -94 145 0
33 -54 -98 145 0
2 -60 -100 145 0
-9 -72 101 145 0
30 -74 102 145 0
-31 -72 -103 145 0
-30 58 -104 145 0
23 73 -108 145 0
-2 53 -85 -146 0
19 -78 -86 -146 0
-12 -66 87 -146 0
12 67 89 -146 0
40 -51 -102 -146 0
-3 48 104 -146 0
40 -66 108 -146 0
-35 -64 -109 -146 0
20 -62 -111 -146 0
38 -77 112 -146 0
36 -76 -119 -146 0
-24 60 119 -146 0
-18 -49 85 146 0
21 50 91 146 0
-22 -53 98 146 0
9 -44 -99 146 0
-19 66 109 146 0
-27 77 -111 146 0
28 75 112 146 0
-39 -44 113 146 0
-8 -50 -120 146 0
-29 -48 -87 -147 0
-38 51 -94 -147 0
13 -45 96 -147 0
-11 44 102 -147 0
28 47 -103 -147 0
32 78 -103 -147 0
29 -45 105 -147 0
33 -43 108 -147 0
-33 -46 112 -147 0
1 -43 119 -147 0
22 63 -92 147 0
20 42 113 147 0
30 -41 -82 -148 0
22 -46 -82 -148 0
-35 -42 -84 -148 0
-8 -42 89 -148 0
31 65 90 -148 0
-28 62 91 -148 0
-11 -68 -94 -148 0
34 -52 -104 -148 0
-14 -61 -86 148 0
13 78 -87 148 0
35 58 93 148 0
-7 -76 100 148 0
21 73 -101 148 0
6 -68 -117 148 0
-4 76 -119 148 0
8 -49 85 -149 0
-16 73 87 -149 0
-22 51 -89 -149 0
-7 -66 -91 -149 0
-40 67 102 -149 0
-28 53 105 -149 0
29 -80 -110 -149 0
-37 -63 -118 -149 0
17 -41 120 -149 0
30 -60 -83 149 0
-13 64 90 149 0
12 43 -97 149 0
36 -61 -98 149 0
11 67 100 149 0
-7 72 107 149 0
-27 46 111 149 0
-26 -77 -115 149 0
-14 -63 81 -150 0
6 -69 -86 -150 0
-35 -53 -87 -150 0
1 48 91 -150 0
-23 -44 -95 -150 0
28 -67 95 -150 0
15 56 108 -150 0
-3 -76 115 -150 0
26 67 -118 -150 0
23 -50 -82 150 0
28 -51 -84 150 0
-15 74 90 150 0
17 -75 93 150 0
39 75 -94 150 0
6 65 101 150 0
31 -76 102 150 0
-18 -49 104 150 0
36 -56 -112 150 0
-10 -53 -115 150 0
-38 58 -117 150 0
-18 58 -90 -151 0
-14 -44 -92 -151 0
-23 -75 -95 -151 0
-23 46 -97 -151 0
33 79 -110 -151 0
-39 52 112 -151 0
-36 -50 -117 -151 0
-6 56 -83 151 0
-24 41 -99 151 0
26 -56 -101 151 0
-18 69 118 151 0
-25 -57 86 -152 0
-22 72 86 -152 0
-2 -78 87 -152 0
-5 -49 92 -152 0
6 -61 93 -152 0
-15 -43 97 -152 0
27 -52 -99 -152 0
-9 61 104 -152 0
-23 76 104 -152 0
-31 -46 -106 -152 0
6 67 -84 152 0
-22 -41 90 152 0
-23 -76 90 152 0
14 43 -99 152 0
33 -54 108 152 0
1 50 -112 152 0
21 74 118 152 0
38 -44 119 152 0
28 -65 83 -153 0
-25 -46 84 -153 0
-17 -78 84 -153 0
3 76 90 -153 0
4 -69 93 -153 0
24 -59 -95 -153 0
-37 54 -99 -153 0
-33 66 -103 -153 0
37 -73 105 -153 0
-40 46 109 -153 0
39 69 110 -153 0
-3 -45 -112 -153 0
-7 68 83 153 0
3 61 -84 153 0
29 -53 -85 153 0
-9 59 94 153 0
40 76 94 153 0
-24 73 98 153 0
-20 -47 100 153 0
22 51 -104 153 0
13 -69 107 153 0
19 54 109 153 0
-37 66 110 153 0
-12 53 115 153 0
-40 -76 -118 153 0
-40 56 81 -154 0
17 -64 83 -154 0
-27 69 -84 -154 0
-10 -48 88 -154 0
25 -58 92 -154 0
14 45 93 -154 0
5 -78 103 -154 0
-24 65 -106 -154 0
33 -63 108 -154 0
29 77 -112 -154 0
14 41 117 -154 0
-1 -43 -119 -154 0
-6 -60 -81 154 0
-31 -52 85 154 0
-29 43 -87 154 0
15 -59 113 154 0
38 -74 -81 -155 0
14 73 -82 -155 0
-26 -59 95 -155 0
-15 -50 -105 -155 0
31 72 -112 -155 0
10 -77 114 -155 0
19 -45 115 -155 0
26 -77 -116 -155 0
21 62 -118 -155 0
-39 -55 -81 155 0
-40 -46 81 155 0
21 62 82 155 0
16 -44 -84 155 0
-26 73 102 155 0
25 -64 -104 155 0
-28 43 110 155 0
-37 43 120 155 0
4 80 82 -156 0
22 -75 85 -156 0
-31 -76 101 -156 0
-19 -51 114 -156 0
10 62 115 -156 0
-21 -52 -84 156 0
-20 -66 85 156 0
17 -71 -89 156 0
7 -77 -100 156 0
23 52 -104 156 0
29 63 106 156 0
-26 -75 112 156 0
-5 76 -116 156 0
-28 -71 -88 -157 0
-36 -59 88 -157 0
-3 -68 -89 -157 0
-1 -57 93 -157 0
-40 -71 93 -157 0
-32 -78 97 -157 0
25 -70 99 -157 0
14 46 111 -157 0
-16 -52 84 157 0
-37 65 90 157 0
-26 -57 -94 157 0
24 -47 99 157 0
33 46 -114 157 0
39 -59 -115 157 0
-23 49 117 157 0
15 74 117 157 0
-26 78 119 157 0
-22 -65 83 -158 0
38 -46 84 -158 0
16 46 95 -158 0
15 45 -96 -158 0
37 -47 -102 -158 0
7 57 -102 -158 0
4 -75 -104 -158 0
18 -49 104 -158 0
12 -62 -112 -158 0
-9 -69 115 -158 0
25 43 81 158 0
-32 68 -88 158 0
20 43 89 158 0
-34 -69 -92 158 0
2 47 110 158 0
39 -42 -113 158 0
18 -76 115 158 0
17 -66 86 -159 0
-16 54 88 -159 0
-40 -41 -100 -159 0
-32 -67 102 -159 0
2 -57 -106 -159 0
-9 -75 113 -159 0
-37 -77 -114 -159 0
-30 -49 -116 -159 0
21 57 -117 -159 0
13 -71 118 -159 0
22 61 -96 159 0
13 -61 -98 159 0
-13 59 -109 159 0
-26 74 -119 159 0
3 -58 120 159 0
5 62 87 -160 0
-19 63 -90 -160 0
-20 -48 102 -160 0
-23 -52 103 -160 0
-21 63 -104 -160 0
5 -68 -106 -160 0
20 68 118 -160 0
16 -46 95 160 0
30 64 110 160 0
-29 62 -112 160 0
-20 47 119 160 0
